p cnf 10 100
-8 -4 -7 0
-5 1 -2 0
-7 1 -10 0
1 -9 2 0
6 -7 10 0
10 -6 -5 0
-6 10 9 0
-3 2 -8 0
5 3 6 0
-10 1 8 0
5 4 -10 0
9 1 4 0
-9 -7 -6 0
6 -4 -10 0
-4 8 7 0
-8 -5 -10 0
-6 2 7 0
6 5 -4 0
-9 10 -4 0
2 5 1 0
-5 9 -6 0
-7 2 -5 0
-6 -5 2 0
6 4 10 0
7 1 -3 0
-2 8 4 0
7 8 6 0
3 -9 8 0
8 -2 -9 0
-8 -4 -6 0
6 8 -9 0
3 -6 -5 0
-5 7 3 0
-2 5 6 0
-4 -10 6 0
-5 -9 3 0
-4 1 -2 0
5 4 1 0
6 -7 2 0
-7 -6 -5 0
-7 3 -2 0
-1 -5 -7 0
5 -4 3 0
4 6 5 0
9 -7 3 0
2 -6 -8 0
7 -3 1 0
9 6 7 0
-7 5 3 0
-6 -7 -2 0
-5 -8 -2 0
-9 -10 -1 0
-2 -6 8 0
8 4 3 0
4 7 6 0
1 10 7 0
3 -9 2 0
3 10 -1 0
-4 -9 1 0
-4 -8 5 0
-6 -2 10 0
-5 -7 -1 0
9 -10 7 0
6 -7 9 0
9 -3 10 0
2 -10 5 0
-4 -9 3 0
-8 1 -3 0
7 -4 3 0
-6 7 10 0
-9 -1 3 0
7 2 -3 0
9 1 2 0
10 -3 -1 0
-5 -1 10 0
-8 3 4 0
4 -5 7 0
-10 8 9 0
-4 2 -5 0
5 10 6 0
-7 10 -9 0
3 10 -5 0
-9 10 1 0
-4 1 5 0
-6 8 -3 0
10 -6 -4 0
-2 10 -3 0
4 5 7 0
-1 7 10 0
9 10 6 0
-10 9 -4 0
-4 -3 2 0
-9 7 2 0
-5 8 -4 0
3 -6 9 0
8 9 6 0
-9 6 5 0
-8 -5 1 0
-2 -3 -9 0
-9 -1 5 0
